142547
84,35,70,53,94,66,40,10,103,37,104,100,2,93,77,95,59,14,90,78,42,57,0,86,43,65,58,9,26,27,75,23,101,73,33,8,105,91,22,56,82,79,88,92,11,7,96,54,28,29,4,51,64,30,97,12,87,68,5,80,41,18,67,49,25,13,46,60,3,102,34,74,62,50,99,98,44,24,85,45,76,39,55,19,15,63,89,16,20,21,61,1,71,81,32,83,52,6,31,17,69,36,48,38,72,47
